Version identifier: 22.1.1.0 | 2022-11-28 | 9160aff4d
CPXPARAM_ClockType                               1
CPXPARAM_Read_DataCheck                          1
CPXPARAM_Threads                                 1
CPXPARAM_TimeLimit                               7200
CPXPARAM_MIP_Tolerances_AbsMIPGap                0
CPXPARAM_MIP_Tolerances_MIPGap                   0
CPXPARAM_MIP_Tolerances_Integrality              0
Tried aggregator 2 times.
MIP Presolve eliminated 1187 rows and 4 columns.
MIP Presolve modified 1278 coefficients.
Aggregator did 450 substitutions.
Reduced MIP has 4384 rows, 2246 columns, and 13706 nonzeros.
Reduced MIP has 2246 binaries, 0 generals, 0 SOSs, and 0 indicators.
Presolve time = 0.02 sec. (15.25 ticks)
Probing time = 0.01 sec. (2.55 ticks)
Tried aggregator 1 time.
Detecting symmetries...
MIP Presolve eliminated 250 rows and 1 columns.
Reduced MIP has 4134 rows, 2245 columns, and 12955 nonzeros.
Reduced MIP has 2245 binaries, 0 generals, 0 SOSs, and 0 indicators.
Presolve time = 0.02 sec. (13.28 ticks)
Probing time = 0.00 sec. (2.35 ticks)
Clique table members: 2528.
MIP emphasis: balance optimality and feasibility.
MIP search method: dynamic search.
Parallel mode: none, using 1 thread.
Root relaxation solution time = 0.26 sec. (251.57 ticks)

        Nodes                                         Cuts/
   Node  Left     Objective  IInf  Best Integer    Best Bound    ItCnt     Gap

      0     0      800.0000   717                    800.0000     2102         
      0     0      800.0000   598                    Cuts: 47     2487         
*     0+    0                          644.0000      800.0000            24.22%
      0     0      800.0000   772      644.0000     Cuts: 147     2919   24.22%
      0     0      800.0000   755      644.0000       Cuts: 3     3155   24.22%
*     0+    0                          654.0000      800.0000            22.32%
      0     0        cutoff            654.0000      800.0000     3155   22.32%
      0     0      800.0000   774      654.0000 ZeroHalf: 156     3475   22.32%
*     0+    0                          656.0000      800.0000            21.95%
*     0+    0                          660.0000      800.0000            21.21%
*     0+    0                          664.0000      800.0000            20.48%
      0     0        cutoff            664.0000      800.0000     3475   20.48%
Detecting symmetries...
      0     2      800.0000   613      664.0000      800.0000     3475   20.48%
Elapsed time = 2.36 sec. (1728.10 ticks, tree = 0.01 MB, solutions = 5)
      1     3      800.0000   707      664.0000      800.0000     6421   20.48%
      4     6      800.0000   624      664.0000      800.0000     8426   20.48%
     10    12      800.0000   654      664.0000      800.0000     9062   20.48%
     22    24      800.0000   606      664.0000      800.0000    10437   20.48%
     32    34      800.0000   617      664.0000      800.0000    11870   20.48%
     33    35      798.6667   626      664.0000      800.0000    13450   20.48%
     47    49      800.0000   564      664.0000      800.0000    14878   20.48%
     51    53      800.0000   558      664.0000      800.0000    16386   20.48%
     58    60      800.0000   565      664.0000      800.0000    17959   20.48%
     75    75      798.4444   532      664.0000      800.0000    23824   20.48%
Elapsed time = 5.52 sec. (5210.90 ticks, tree = 2.20 MB, solutions = 5)
     86    80      800.0000   635      664.0000      800.0000    29740   20.48%
    106   100      800.0000   537      664.0000      800.0000    35368   20.48%
    125   119      799.8125   662      664.0000      800.0000    41733   20.48%
    140   130      800.0000   452      664.0000      800.0000    46615   20.48%
    158   142    infeasible            664.0000      800.0000    52141   20.48%
    176   152      799.8333   579      664.0000      800.0000    56727   20.48%
    195   163      799.8750   614      664.0000      800.0000    61048   20.48%
    210   170      799.6250   683      664.0000      800.0000    65959   20.48%
    234   188    infeasible            664.0000      800.0000    72232   20.48%
    243   187    infeasible            664.0000      800.0000    78733   20.48%
Elapsed time = 15.58 sec. (15264.44 ticks, tree = 5.45 MB, solutions = 5)
    246   190      799.5200   714      664.0000      800.0000    84640   20.48%
    254   192      798.1111   703      664.0000      800.0000    90222   20.48%
    269   199      799.5200   674      664.0000      800.0000    94767   20.48%
    284   204      799.5200   679      664.0000      800.0000   100409   20.48%
    295   207    infeasible            664.0000      800.0000   106289   20.48%
    300   208      798.9982   665      664.0000      800.0000   111999   20.48%
    310   210      800.0000   645      664.0000      800.0000   117761   20.48%
    334   234      799.8378   635      664.0000      800.0000   122144   20.48%
    353   241    infeasible            664.0000      800.0000   128649   20.48%
    368   252      799.5238   681      664.0000      800.0000   132986   20.48%
Elapsed time = 25.64 sec. (25853.75 ticks, tree = 7.43 MB, solutions = 5)
    386   262      799.5758   621      664.0000      800.0000   138613   20.48%
    405   277      799.3704   607      664.0000      800.0000   143493   20.48%
    420   286      798.8889   601      664.0000      800.0000   149526   20.48%
    433   291      796.7457   632      664.0000      800.0000   156301   20.48%
    445   293      799.3333   630      664.0000      800.0000   162871   20.48%
    455   297    infeasible            664.0000      800.0000   168803   20.48%
    465   301      798.6980   634      664.0000      800.0000   174632   20.48%
    473   301    infeasible            664.0000      800.0000   181362   20.48%
    489   313      799.8584   706      664.0000      800.0000   186996   20.48%
    506   326      799.7778   644      664.0000      800.0000   192278   20.48%
Elapsed time = 35.48 sec. (35924.11 ticks, tree = 9.86 MB, solutions = 5)
    527   337    infeasible            664.0000      800.0000   198260   20.48%
    537   339      799.3333   658      664.0000      800.0000   204001   20.48%
    543   341      799.3488   669      664.0000      800.0000   209945   20.48%
    554   340      799.5785   698      664.0000      800.0000   216430   20.48%
    574   352      799.2443   681      664.0000      800.0000   221396   20.48%
    586   352    infeasible            664.0000      800.0000   227600   20.48%
    591   351    infeasible            664.0000      800.0000   232637   20.48%
    610   370      800.0000   569      664.0000      800.0000   236392   20.48%
    621   373    infeasible            664.0000      800.0000   242344   20.48%
    632   372    infeasible            664.0000      800.0000   249541   20.48%
Elapsed time = 45.22 sec. (46061.72 ticks, tree = 11.41 MB, solutions = 5)
    645   379      799.8462   667      664.0000      800.0000   254589   20.48%
    660   390      799.4872   643      664.0000      800.0000   260293   20.48%
    672   388    infeasible            664.0000      800.0000   266034   20.48%
    680   386    infeasible            664.0000      800.0000   273044   20.48%
    688   384    infeasible            664.0000      800.0000   279814   20.48%
    702   382      799.3333   693      664.0000      800.0000   286395   20.48%
    708   380    infeasible            664.0000      800.0000   291907   20.48%
    717   377    infeasible            664.0000      800.0000   297267   20.48%
    728   378    infeasible            664.0000      800.0000   303011   20.48%
    744   388      793.3333   407      664.0000      800.0000   308761   20.48%
Elapsed time = 55.28 sec. (56736.13 ticks, tree = 11.85 MB, solutions = 5)
    765   398    infeasible            664.0000      800.0000   314418   20.48%
    781   404      799.6667   586      664.0000      800.0000   320171   20.48%
    802   417      798.0000   504      664.0000      800.0000   324789   20.48%
    818   419      798.0000   534      664.0000      800.0000   330857   20.48%
    832   421    infeasible            664.0000      800.0000   336868   20.48%
    850   429    infeasible            664.0000      800.0000   342751   20.48%
    859   430      800.0000   588      664.0000      800.0000   348835   20.48%
    870   429    infeasible            664.0000      800.0000   355621   20.48%
    886   443    infeasible            664.0000      800.0000   361487   20.48%
    897   440    infeasible            664.0000      800.0000   368207   20.48%
Elapsed time = 64.94 sec. (66968.75 ticks, tree = 13.68 MB, solutions = 5)
    904   439      798.1111   724      664.0000      800.0000   373993   20.48%
    912   439      796.0000   592      664.0000      800.0000   379576   20.48%
    924   438    infeasible            664.0000      800.0000   385706   20.48%
    936   436    infeasible            664.0000      800.0000   391442   20.48%
    950   438      798.6667   511      664.0000      800.0000   397907   20.48%
    962   440    infeasible            664.0000      800.0000   403995   20.48%
    975   437    infeasible            664.0000      800.0000   410168   20.48%
    984   440      799.7333   618      664.0000      800.0000   416517   20.48%
   1005   455      798.0000   547      664.0000      800.0000   421554   20.48%
   1022   462      799.6667   615      664.0000      800.0000   426850   20.48%
Elapsed time = 74.33 sec. (77034.26 ticks, tree = 14.42 MB, solutions = 5)
   1036   468      800.0000   586      664.0000      800.0000   432604   20.48%
   1051   473    infeasible            664.0000      800.0000   437792   20.48%
   1066   480      797.4386   658      664.0000      800.0000   443453   20.48%
   1087   491      800.0000   558      664.0000      800.0000   448516   20.48%
   1102   498    infeasible            664.0000      800.0000   454219   20.48%
   1112   498    infeasible            664.0000      800.0000   459666   20.48%
   1125   499    infeasible            664.0000      800.0000   465901   20.48%
   1140   502    infeasible            664.0000      800.0000   472365   20.48%
   1157   505    infeasible            664.0000      800.0000   478433   20.48%
   1168   504    infeasible            664.0000      800.0000   484477   20.48%
Elapsed time = 84.00 sec. (87052.30 ticks, tree = 15.88 MB, solutions = 5)
   1183   507    infeasible            664.0000      800.0000   491376   20.48%
   1198   506      800.0000   464      664.0000      800.0000   497253   20.48%
   1208   502    infeasible            664.0000      800.0000   503655   20.48%
   1224   502    infeasible            664.0000      800.0000   509838   20.48%
   1237   499    infeasible            664.0000      800.0000   516480   20.48%
   1250   500      800.0000   428      664.0000      800.0000   522314   20.48%
   1258   498    infeasible            664.0000      800.0000   528737   20.48%
   1268   494    infeasible            664.0000      800.0000   535459   20.48%
   1282   494    infeasible            664.0000      800.0000   541056   20.48%
   1312   494    infeasible            664.0000      800.0000   565122   20.48%
Elapsed time = 97.28 sec. (100007.77 ticks, tree = 15.54 MB, solutions = 5)
   1349   496    infeasible            664.0000      800.0000   589498   20.48%
   1409   496    infeasible            664.0000      800.0000   613019   20.48%
   1455   490    infeasible            664.0000      800.0000   637730   20.48%
   1525   506    infeasible            664.0000      800.0000   661137   20.48%
   1585   530    infeasible            664.0000      800.0000   683200   20.48%
   1637   538      798.5614   673      664.0000      800.0000   707038   20.48%
   1698   539    infeasible            664.0000      800.0000   730302   20.48%
   1764   549    infeasible            664.0000      800.0000   753715   20.48%
   1840   549    infeasible            664.0000      800.0000   776679   20.48%
   1894   535    infeasible            664.0000      800.0000   802396   20.48%
Elapsed time = 134.79 sec. (138917.86 ticks, tree = 16.92 MB, solutions = 5)
   1935   542      800.0000   562      664.0000      800.0000   825767   20.48%
   1989   546      799.3571   637      664.0000      800.0000   850449   20.48%
   2027   548      784.0000   602      664.0000      800.0000   874077   20.48%
*  2034+  547                          666.0000      800.0000            20.12%
*  2035+  548                          678.0000      800.0000            17.99%
*  2036+  549                          680.0000      800.0000            17.65%
   2064   551      798.0000   596      680.0000      800.0000   896868   17.65%
   2105   544      795.0000   540      680.0000      800.0000   920456   17.65%

Performing restart 1

Repeating presolve.
Tried aggregator 1 time.
MIP Presolve eliminated 0 rows and 1 columns.
Reduced MIP has 4134 rows, 2244 columns, and 12954 nonzeros.
Reduced MIP has 2244 binaries, 0 generals, 0 SOSs, and 0 indicators.
Presolve time = 0.01 sec. (7.21 ticks)
Tried aggregator 1 time.
Reduced MIP has 4134 rows, 2244 columns, and 12954 nonzeros.
Reduced MIP has 2244 binaries, 0 generals, 0 SOSs, and 0 indicators.
Presolve time = 0.01 sec. (9.32 ticks)
Represolve time = 0.05 sec. (36.58 ticks)
   2146     0      800.0000   733      680.0000  ZeroHalf: 16   937230   17.65%
   2146     0      800.0000   753      680.0000     Cuts: 101   937612   17.65%
   2146     0      800.0000   704      680.0000      Cuts: 23   937840   17.65%
   2146     0      800.0000   700      680.0000     Cuts: 117   938058   17.65%
   2146     0      800.0000   708      680.0000      Cuts: 75   938276   17.65%
   2146     0      800.0000   649      680.0000   ZeroHalf: 6   938420   17.65%
   2146     0      800.0000   735      680.0000     Cuts: 154   938716   17.65%
   2146     0      800.0000   553      680.0000   ZeroHalf: 3   938807   17.65%
   2146     0      800.0000   635      680.0000     Cuts: 163   939085   17.65%
*  2146+    0                          700.0000      800.0000            14.29%
   2146     0        cutoff            700.0000      800.0000   939085   14.29%
   2146     2      800.0000   635      700.0000      800.0000   939085   14.29%
   2158     8      800.0000   475      700.0000      800.0000   951209   14.29%
*  2176+   12                          786.0000      800.0000             1.78%
*  2176+    1                          800.0000      800.0000             0.00%

GUB cover cuts applied:  1
Clique cuts applied:  1
Implied bound cuts applied:  4
Zero-half cuts applied:  34
Gomory fractional cuts applied:  2

Root node processing (before b&c):
  Real time             =    2.36 sec. (1721.29 ticks)
Sequential b&c:
  Real time             =  167.16 sec. (170671.34 ticks)
                          ------------
Total (root+branch&cut) =  169.52 sec. (172392.63 ticks)
Solution is feasible.

---------------------
@@@ MIP_optimal
>>> Benchmark flat50-3.cnf k 5 OPT 800 TimeCost 170.49322533607483 TimeSolve 170.14424514770508 TimeRead 0.001680135726928711 TimeTrans 0.34730005264282227
